0 4601
4 4585
6 4570
23 4565
37 4560
41 4557
47 4556
48 4526
71 4524
79 4523
83 4511
87 4508
90 4478
96 4464
100 4448
109 4434
114 4431
119 4419
120 4383
188 4375
213 4358
248 4355
256 4348
263 4336
267 4328
275 4326
282 4308
342 4302
371 4299
373 4292
396 4283
432 4279
489 4277
544 4268
635 4267
676 4261
694 4249
713 4233
763 4214
768 4202
850 4197
852 4196
853 4193
867 4189
878 4150
936 4147
1001 4139
1145 4135
1186 4128
1187 4119
1633 4108
1655 4104
2045 4101
6060 4100
6181 4097
6555 4094
6769 4091
7457 4090
7701 4083
7796 4074
7932 4072
8069 4063
8948 4057
9070 4056
9112 4047
9699 4042
9959 4036
9970 4035
9986 4025
13318 4020
13578 4014
14543 4013
16952 4009
20110 4005
